p cnf 20 40
-2 -17 0
-5 -8 0
-8 18 0
-17 18 0
-9 -11 0
2 -14 0
-5 -8 0
-20 15 0
18 3 0
6 -9 0
-2 -1 0
1 -3 0
-19 -3 0
16 4 0
-2 -20 0
12 -11 0
17 10 0
-6 3 0
-10 -16 0
-6 10 0
-13 16 0
-15 -1 0
-1 9 0
-12 11 0
-17 9 0
-13 -19 0
14 -5 0
-11 12 0
10 -6 0
18 -2 0
-14 7 0
18 -15 0
-20 -17 0
3 -2 0
4 -13 0
-18 17 0
9 6 0
-8 17 0
-7 17 0
-9 -8 0
